(set-logic HORN)
(set-info :source |
    Benchmark: C_VC
    Output by Princess (http://www.philipp.ruemmer.org/princess.shtml)
|)
(set-info :status unknown)
(declare-fun inv_main22 (Int Int) Bool)
(declare-fun inv_main7 (Int Int Int Int Int) Bool)
(assert (forall ((var0 Int) (var1 Int) (var2 Int) (var3 Int) (var4 Int)) (or (not (and (and (and (= 0 var4) (= 0 var2)) (= 0 var1)) (= 0 var3))) (inv_main7 var0 var4 var2 var1 var3))))
(assert (forall ((var0 Int) (var1 Int) (var2 Int) (var3 Int)) (or (not (and (inv_main22 var0 var1) (and (and (not (= var3 0)) (<= 0 (+ var0 (* (- 1) var1)))) (= (+ var1 1) var2)))) (inv_main22 var0 var2))))
(assert (forall ((var0 Int) (var1 Int) (var2 Int)) (or (not (and (inv_main22 var0 var1) (and (<= 0 (+ var0 (* (- 1) var1))) (= (+ var1 2) var2)))) (inv_main22 var0 var2))))
(assert (forall ((var0 Int) (var1 Int) (var2 Int) (var3 Int) (var4 Int) (var5 Int) (var6 Int)) (or (not (and (inv_main7 var3 var4 var0 var2 var6) (and (and (not (= var3 0)) (= (+ (+ var4 (* (- 2) var0)) 2) var1)) (= 0 var5)))) (inv_main22 var1 var5))))
(assert (forall ((var0 Int) (var1 Int) (var2 Int) (var3 Int) (var4 Int) (var5 Int) (var6 Int)) (or (not (and (inv_main7 0 var4 var1 var2 var5) (and (and (= var3 0) (= 1 var6)) (= 0 var0)))) (inv_main22 var6 var0))))
(assert (forall ((var0 Int) (var1 Int) (var2 Int) (var3 Int) (var4 Int) (var5 Int) (var6 Int) (var7 Int) (var8 Int) (var9 Int)) (or (not (and (inv_main7 var3 var4 var0 var2 var7) (and (and (and (and (and (not (= var3 0)) (not (= var5 0))) (= (+ var2 1) var9)) (= (+ (+ var4 (+ var7 1)) (+ var2 1)) var1)) (= (+ var0 (+ var2 1)) var8)) (= (+ var7 1) var6)))) (inv_main7 var3 var1 var8 var9 var6))))
(assert (forall ((var0 Int) (var1 Int) (var2 Int) (var3 Int) (var4 Int) (var5 Int) (var6 Int) (var7 Int) (var8 Int) (var9 Int)) (or (not (and (inv_main7 0 var4 var1 var2 var7) (and (and (and (and (and (not (= var5 0)) (= (+ var4 (+ var7 1)) var9)) (= (+ var1 (+ var2 1)) var0)) (= (+ var2 1) var8)) (= (+ var7 1) var6)) (= var3 0)))) (inv_main7 var3 var9 var0 var8 var6))))
(assert (forall ((var0 Int) (var1 Int)) (not (and (inv_main22 var0 var1) (not (or (<= 0 (+ 4 (* (- 1) var1))) (<= 0 (+ var0 (* (- 1) var1)))))))))
(check-sat)
